c 6x6
p cnf 36 400
1 2 7 0
-1 -2 7 0
-1 2 -7 0
1 -2 -7 0
1 2 3 8 0
-1 -2 3 8 0
-1 2 -3 8 0
-1 2 3 -8 0
1 -2 -3 8 0
1 -2 3 -8 0
1 2 -3 -8 0
-1 -2 -3 -8 0
2 3 4 9 0
-2 -3 4 9 0
-2 3 -4 9 0
-2 3 4 -9 0
2 -3 -4 9 0
2 -3 4 -9 0
2 3 -4 -9 0
-2 -3 -4 -9 0
3 4 5 10 0
-3 -4 5 10 0
-3 4 -5 10 0
-3 4 5 -10 0
3 -4 -5 10 0
3 -4 5 -10 0
3 4 -5 -10 0
-3 -4 -5 -10 0
4 5 6 11 0
-4 -5 6 11 0
-4 5 -6 11 0
-4 5 6 -11 0
4 -5 -6 11 0
4 -5 6 -11 0
4 5 -6 -11 0
-4 -5 -6 -11 0
5 6 12 0
-5 -6 12 0
-5 6 -12 0
5 -6 -12 0
1 7 8 13 0
-1 -7 8 13 0
-1 7 -8 13 0
-1 7 8 -13 0
1 -7 -8 13 0
1 -7 8 -13 0
1 7 -8 -13 0
-1 -7 -8 -13 0
2 7 8 9 14 0
-2 -7 8 9 14 0
-2 7 -8 9 14 0
-2 7 8 -9 14 0
-2 7 8 9 -14 0
2 -7 -8 9 14 0
2 -7 8 -9 14 0
2 -7 8 9 -14 0
2 7 -8 -9 14 0
2 7 -8 9 -14 0
2 7 8 -9 -14 0
-2 -7 -8 -9 14 0
-2 -7 -8 9 -14 0
-2 -7 8 -9 -14 0
-2 7 -8 -9 -14 0
2 -7 -8 -9 -14 0
3 8 9 10 15 0
-3 -8 9 10 15 0
-3 8 -9 10 15 0
-3 8 9 -10 15 0
-3 8 9 10 -15 0
3 -8 -9 10 15 0
3 -8 9 -10 15 0
3 -8 9 10 -15 0
3 8 -9 -10 15 0
3 8 -9 10 -15 0
3 8 9 -10 -15 0
-3 -8 -9 -10 15 0
-3 -8 -9 10 -15 0
-3 -8 9 -10 -15 0
-3 8 -9 -10 -15 0
3 -8 -9 -10 -15 0
4 9 10 11 16 0
-4 -9 10 11 16 0
-4 9 -10 11 16 0
-4 9 10 -11 16 0
-4 9 10 11 -16 0
4 -9 -10 11 16 0
4 -9 10 -11 16 0
4 -9 10 11 -16 0
4 9 -10 -11 16 0
4 9 -10 11 -16 0
4 9 10 -11 -16 0
-4 -9 -10 -11 16 0
-4 -9 -10 11 -16 0
-4 -9 10 -11 -16 0
-4 9 -10 -11 -16 0
4 -9 -10 -11 -16 0
5 10 11 12 17 0
-5 -10 11 12 17 0
-5 10 -11 12 17 0
-5 10 11 -12 17 0
-5 10 11 12 -17 0
5 -10 -11 12 17 0
5 -10 11 -12 17 0
5 -10 11 12 -17 0
5 10 -11 -12 17 0
5 10 -11 12 -17 0
5 10 11 -12 -17 0
-5 -10 -11 -12 17 0
-5 -10 -11 12 -17 0
-5 -10 11 -12 -17 0
-5 10 -11 -12 -17 0
5 -10 -11 -12 -17 0
6 11 12 18 0
-6 -11 12 18 0
-6 11 -12 18 0
-6 11 12 -18 0
6 -11 -12 18 0
6 -11 12 -18 0
6 11 -12 -18 0
-6 -11 -12 -18 0
7 13 14 19 0
-7 -13 14 19 0
-7 13 -14 19 0
-7 13 14 -19 0
7 -13 -14 19 0
7 -13 14 -19 0
7 13 -14 -19 0
-7 -13 -14 -19 0
8 13 14 15 20 0
-8 -13 14 15 20 0
-8 13 -14 15 20 0
-8 13 14 -15 20 0
-8 13 14 15 -20 0
8 -13 -14 15 20 0
8 -13 14 -15 20 0
8 -13 14 15 -20 0
8 13 -14 -15 20 0
8 13 -14 15 -20 0
8 13 14 -15 -20 0
-8 -13 -14 -15 20 0
-8 -13 -14 15 -20 0
-8 -13 14 -15 -20 0
-8 13 -14 -15 -20 0
8 -13 -14 -15 -20 0
9 14 15 16 21 0
-9 -14 15 16 21 0
-9 14 -15 16 21 0
-9 14 15 -16 21 0
-9 14 15 16 -21 0
9 -14 -15 16 21 0
9 -14 15 -16 21 0
9 -14 15 16 -21 0
9 14 -15 -16 21 0
9 14 -15 16 -21 0
9 14 15 -16 -21 0
-9 -14 -15 -16 21 0
-9 -14 -15 16 -21 0
-9 -14 15 -16 -21 0
-9 14 -15 -16 -21 0
9 -14 -15 -16 -21 0
10 15 16 17 22 0
-10 -15 16 17 22 0
-10 15 -16 17 22 0
-10 15 16 -17 22 0
-10 15 16 17 -22 0
10 -15 -16 17 22 0
10 -15 16 -17 22 0
10 -15 16 17 -22 0
10 15 -16 -17 22 0
10 15 -16 17 -22 0
10 15 16 -17 -22 0
-10 -15 -16 -17 22 0
-10 -15 -16 17 -22 0
-10 -15 16 -17 -22 0
-10 15 -16 -17 -22 0
10 -15 -16 -17 -22 0
11 16 17 18 23 0
-11 -16 17 18 23 0
-11 16 -17 18 23 0
-11 16 17 -18 23 0
-11 16 17 18 -23 0
11 -16 -17 18 23 0
11 -16 17 -18 23 0
11 -16 17 18 -23 0
11 16 -17 -18 23 0
11 16 -17 18 -23 0
11 16 17 -18 -23 0
-11 -16 -17 -18 23 0
-11 -16 -17 18 -23 0
-11 -16 17 -18 -23 0
-11 16 -17 -18 -23 0
11 -16 -17 -18 -23 0
12 17 18 24 0
-12 -17 18 24 0
-12 17 -18 24 0
-12 17 18 -24 0
12 -17 -18 24 0
12 -17 18 -24 0
12 17 -18 -24 0
-12 -17 -18 -24 0
13 19 20 25 0
-13 -19 20 25 0
-13 19 -20 25 0
-13 19 20 -25 0
13 -19 -20 25 0
13 -19 20 -25 0
13 19 -20 -25 0
-13 -19 -20 -25 0
14 19 20 21 26 0
-14 -19 20 21 26 0
-14 19 -20 21 26 0
-14 19 20 -21 26 0
-14 19 20 21 -26 0
14 -19 -20 21 26 0
14 -19 20 -21 26 0
14 -19 20 21 -26 0
14 19 -20 -21 26 0
14 19 -20 21 -26 0
14 19 20 -21 -26 0
-14 -19 -20 -21 26 0
-14 -19 -20 21 -26 0
-14 -19 20 -21 -26 0
-14 19 -20 -21 -26 0
14 -19 -20 -21 -26 0
15 20 21 22 27 0
-15 -20 21 22 27 0
-15 20 -21 22 27 0
-15 20 21 -22 27 0
-15 20 21 22 -27 0
15 -20 -21 22 27 0
15 -20 21 -22 27 0
15 -20 21 22 -27 0
15 20 -21 -22 27 0
15 20 -21 22 -27 0
15 20 21 -22 -27 0
-15 -20 -21 -22 27 0
-15 -20 -21 22 -27 0
-15 -20 21 -22 -27 0
-15 20 -21 -22 -27 0
15 -20 -21 -22 -27 0
16 21 22 23 28 0
-16 -21 22 23 28 0
-16 21 -22 23 28 0
-16 21 22 -23 28 0
-16 21 22 23 -28 0
16 -21 -22 23 28 0
16 -21 22 -23 28 0
16 -21 22 23 -28 0
16 21 -22 -23 28 0
16 21 -22 23 -28 0
16 21 22 -23 -28 0
-16 -21 -22 -23 28 0
-16 -21 -22 23 -28 0
-16 -21 22 -23 -28 0
-16 21 -22 -23 -28 0
16 -21 -22 -23 -28 0
17 22 23 24 29 0
-17 -22 23 24 29 0
-17 22 -23 24 29 0
-17 22 23 -24 29 0
-17 22 23 24 -29 0
17 -22 -23 24 29 0
17 -22 23 -24 29 0
17 -22 23 24 -29 0
17 22 -23 -24 29 0
17 22 -23 24 -29 0
17 22 23 -24 -29 0
-17 -22 -23 -24 29 0
-17 -22 -23 24 -29 0
-17 -22 23 -24 -29 0
-17 22 -23 -24 -29 0
17 -22 -23 -24 -29 0
18 23 24 30 0
-18 -23 24 30 0
-18 23 -24 30 0
-18 23 24 -30 0
18 -23 -24 30 0
18 -23 24 -30 0
18 23 -24 -30 0
-18 -23 -24 -30 0
19 25 26 31 0
-19 -25 26 31 0
-19 25 -26 31 0
-19 25 26 -31 0
19 -25 -26 31 0
19 -25 26 -31 0
19 25 -26 -31 0
-19 -25 -26 -31 0
20 25 26 27 32 0
-20 -25 26 27 32 0
-20 25 -26 27 32 0
-20 25 26 -27 32 0
-20 25 26 27 -32 0
20 -25 -26 27 32 0
20 -25 26 -27 32 0
20 -25 26 27 -32 0
20 25 -26 -27 32 0
20 25 -26 27 -32 0
20 25 26 -27 -32 0
-20 -25 -26 -27 32 0
-20 -25 -26 27 -32 0
-20 -25 26 -27 -32 0
-20 25 -26 -27 -32 0
20 -25 -26 -27 -32 0
21 26 27 28 33 0
-21 -26 27 28 33 0
-21 26 -27 28 33 0
-21 26 27 -28 33 0
-21 26 27 28 -33 0
21 -26 -27 28 33 0
21 -26 27 -28 33 0
21 -26 27 28 -33 0
21 26 -27 -28 33 0
21 26 -27 28 -33 0
21 26 27 -28 -33 0
-21 -26 -27 -28 33 0
-21 -26 -27 28 -33 0
-21 -26 27 -28 -33 0
-21 26 -27 -28 -33 0
21 -26 -27 -28 -33 0
22 27 28 29 34 0
-22 -27 28 29 34 0
-22 27 -28 29 34 0
-22 27 28 -29 34 0
-22 27 28 29 -34 0
22 -27 -28 29 34 0
22 -27 28 -29 34 0
22 -27 28 29 -34 0
22 27 -28 -29 34 0
22 27 -28 29 -34 0
22 27 28 -29 -34 0
-22 -27 -28 -29 34 0
-22 -27 -28 29 -34 0
-22 -27 28 -29 -34 0
-22 27 -28 -29 -34 0
22 -27 -28 -29 -34 0
23 28 29 30 35 0
-23 -28 29 30 35 0
-23 28 -29 30 35 0
-23 28 29 -30 35 0
-23 28 29 30 -35 0
23 -28 -29 30 35 0
23 -28 29 -30 35 0
23 -28 29 30 -35 0
23 28 -29 -30 35 0
23 28 -29 30 -35 0
23 28 29 -30 -35 0
-23 -28 -29 -30 35 0
-23 -28 -29 30 -35 0
-23 -28 29 -30 -35 0
-23 28 -29 -30 -35 0
23 -28 -29 -30 -35 0
24 29 30 36 0
-24 -29 30 36 0
-24 29 -30 36 0
-24 29 30 -36 0
24 -29 -30 36 0
24 -29 30 -36 0
24 29 -30 -36 0
-24 -29 -30 -36 0
25 31 32 0
-25 -31 32 0
-25 31 -32 0
25 -31 -32 0
26 31 32 33 0
-26 -31 32 33 0
-26 31 -32 33 0
-26 31 32 -33 0
26 -31 -32 33 0
26 -31 32 -33 0
26 31 -32 -33 0
-26 -31 -32 -33 0
27 32 33 34 0
-27 -32 33 34 0
-27 32 -33 34 0
-27 32 33 -34 0
27 -32 -33 34 0
27 -32 33 -34 0
27 32 -33 -34 0
-27 -32 -33 -34 0
28 33 34 35 0
-28 -33 34 35 0
-28 33 -34 35 0
-28 33 34 -35 0
28 -33 -34 35 0
28 -33 34 -35 0
28 33 -34 -35 0
-28 -33 -34 -35 0
29 34 35 36 0
-29 -34 35 36 0
-29 34 -35 36 0
-29 34 35 -36 0
29 -34 -35 36 0
29 -34 35 -36 0
29 34 -35 -36 0
-29 -34 -35 -36 0
30 35 36 0
-30 -35 36 0
-30 35 -36 0
30 -35 -36 0
